Problem:    
Rows:       354
Columns:    129 (110 integer, 110 binary)
Non-zeros:  1125
Status:     INTEGER OPTIMAL
Objective:  value = 8.427056 (MINimum)

   No.   Row name        Activity     Lower bound   Upper bound
------ ------------    ------------- ------------- -------------
     1 r.5                         1             1             = 
     2 r.6                   1008.43             0               
     3 r.7                  -991.573      -998.877               
     4 r.8                   8.42706             0               
     5 r.9                   8.42706      -998.568               
     6 r.10                  8.42706             0               
     7 r.11                  8.42706      -998.197               
     8 r.12                  1008.43             0               
     9 r.13                 -991.573      -998.768               
    10 r.14                  8.42706             0               
    11 r.15                  8.42706      -998.581               
    12 r.16                  1008.43             0               
    13 r.17                   -992.9      -999.089               
    14 r.18                  8.42706             0               
    15 r.19                 -997.973      -998.205               
    16 r.20                  1008.43             0               
    17 r.21                 -993.811      -998.912               
    18 r.22                  8.42706             0               
    19 r.23                  7.30376      -998.113               
    20 r.24                  1008.43             0               
    21 r.25                 -994.898      -998.932               
    22 r.26                  1008.43             0               
    23 r.27                 -992.804      -996.838               
    24 r.28                  8.42706             0               
    25 r.29                   7.1955      -997.199               
    26 r.30                  1008.43             0               
    27 r.31                 -995.966      -996.548               
    28 r.32                  8.42706             0               
    29 r.33                  6.18949      -996.206               
    30 r.34                  8.42706             0               
    31 r.35                 -995.116      -995.348               
    32 r.36                  1008.43             0               
    33 r.37                 -995.966      -996.198               
    34 r.38                  1008.43             0               
    35 r.39                 -999.768      -999.768               
    36 r.40                  8.42706             0               
    37 r.41                    0.232      -999.001               
    38 r.42                        1             1             = 
    39 r.43                        1             1             = 
    40 r.44                        1             1             = 
    41 r.45                        1             1             = 
    42 r.46                        1             1             = 
    43 r.47                        1             1             = 
    44 r.48                        1             1             = 
    45 r.49                        1             1             = 
    46 r.50                        1             1             = 
    47 r.51                     1001             2               
    48 r.52                    -1001         -1001               
    49 r.53                     2000      -998.197               
    50 r.54                     1001             2               
    51 r.55                    -1001         -1001               
    52 r.56                     2000      -998.768               
    53 r.57                     1001             2               
    54 r.58                    -1001         -1001               
    55 r.59                     2000      -998.581               
    56 r.60                     1001             2               
    57 r.61                    -1001         -1001               
    58 r.62                  1998.67      -999.089               
    59 r.63                     1001             2               
    60 r.64                    -1001         -1001               
    61 r.65                    993.6      -998.205               
    62 r.66                     1001             2               
    63 r.67                    -1001         -1001               
    64 r.68                  1997.76      -998.912               
    65 r.69                 -998.877      -998.877               
    66 r.70                   1.1233      -998.568               
    67 r.71                 -996.675      -998.877               
    68 r.72                  3.32546      -998.568               
    69 r.73                        2             2               
    70 r.74                       -2         -1001               
    71 r.75                 -1.23156      -996.838               
    72 r.76                     1000             2               
    73 r.77                    -1000         -1001               
    74 r.78                  1998.77      -997.199               
    75 r.79                        2             2               
    76 r.80                       -2         -1001               
    77 r.81                 -4.39316      -996.548               
    78 r.82                     1000             2               
    79 r.83                    -1000         -1001               
    80 r.84                  1997.76      -996.206               
    81 r.85                     1001             2               
    82 r.86                    -1001         -1001               
    83 r.87                  996.457      -995.348               
    84 r.88                     1001             2               
    85 r.89                    -1001         -1001               
    86 r.90                  1995.61      -996.198               
    87 r.91                     1001             2               
    88 r.92                    -1001         -1001               
    89 r.93                     2000        1.1233               
    90 r.94                     1001             2               
    91 r.95                    -1001         -1001               
    92 r.96                     2000        1.4316               
    93 r.97                     1000             2               
    94 r.98                    -1000         -1001               
    95 r.99                     2000      -998.581               
    96 r.100                       2             2               
    97 r.101                      -2         -1001               
    98 r.102                -1.32682      -999.089               
    99 r.103                    1000             2               
   100 r.104                   -1000         -1001               
   101 r.105                   993.6      -998.205               
   102 r.106                       2             2               
   103 r.107                      -2         -1001               
   104 r.108                -2.23757      -998.912               
   105 r.109                    1000             2               
   106 r.110                   -1000         -1001               
   107 r.111                 1998.88      -998.113               
   108 r.112                       2             2               
   109 r.113                      -2         -1001               
   110 r.114                -3.32546      -998.932               
   111 r.115                 1.23156      -998.197               
   112 r.116                -998.768      -998.768               
   113 r.117                 1.23156      -998.197               
   114 r.118                -998.768      -998.768               
   115 r.119                    1001             2               
   116 r.120                   -1001         -1001               
   117 r.121                 1995.61      -996.548               
   118 r.122                    1001             2               
   119 r.123                   -1001         -1001               
   120 r.124                 1997.76      -996.206               
   121 r.125                    1001             2               
   122 r.126                   -1001         -1001               
   123 r.127                    2000        1.1233               
   124 r.128                    1001             2               
   125 r.129                   -1001         -1001               
   126 r.130                 2001.33        1.4316               
   127 r.131                    1000             2               
   128 r.132                   -1000         -1001               
   129 r.133                    2000        1.8034               
   130 r.134                       2             2               
   131 r.135                      -2         -1001               
   132 r.136                 1.32682       1.23156               
   133 r.137                    1000             2               
   134 r.138                   -1000         -1001               
   135 r.139                   993.6      -998.205               
   136 r.140                       2             2               
   137 r.141                      -2         -1001               
   138 r.142                -0.91075      -998.912               
   139 r.143                    1000             2               
   140 r.144                   -1000         -1001               
   141 r.145                 1998.88      -998.113               
   142 r.146                       2             2               
   143 r.147                      -2         -1001               
   144 r.148                -1.99864      -998.932               
   145 r.149                    1001             2               
   146 r.150                   -1001         -1001               
   147 r.151                 1998.77      -996.838               
   148 r.152                    1001             2               
   149 r.153                   -1001         -1001               
   150 r.154                  2000.1      -997.199               
   151 r.155                 4.39316      -998.581               
   152 r.156                -996.934      -999.089               
   153 r.157                 2.23757      -998.581               
   154 r.158                -999.089      -999.089               
   155 r.159                    1000             2               
   156 r.160                   -1000         -1001               
   157 r.161                 996.457      -995.348               
   158 r.162                       2             2               
   159 r.163                      -2         -1001               
   160 r.164                -3.06634      -996.198               
   161 r.165                    1001             2               
   162 r.166                   -1001         -1001               
   163 r.167                  3006.4        1.1233               
   164 r.168                    1001             2               
   165 r.169                   -1001         -1001               
   166 r.170                 2002.24        1.4316               
   167 r.171                    1000             2               
   168 r.172                   -1000         -1001               
   169 r.173                  3006.4        1.8034               
   170 r.174                       2             2               
   171 r.175                      -2         -1001               
   172 r.176                 2.23757       1.23156               
   173 r.177                    1000             2               
   174 r.178                   -1000         -1001               
   175 r.179                  3006.4        1.4191               
   176 r.180                       2             2               
   177 r.181                      -2         -1001               
   178 r.182                 0.91075       0.91075               
   179 r.183                    1000             2               
   180 r.184                   -1000         -1001               
   181 r.185                 3005.28      -998.113               
   182 r.186                       2             2               
   183 r.187                      -2         -1001               
   184 r.188                -1.08789      -998.932               
   185 r.189                    1001             2               
   186 r.190                   -1001         -1001               
   187 r.191                 3005.17      -996.838               
   188 r.192                    1001             2               
   189 r.193                   -1001         -1001               
   190 r.194                 2001.01      -997.199               
   191 r.195                    1001             2               
   192 r.196                   -1001         -1001               
   193 r.197                 3002.01      -996.548               
   194 r.198                    1001             2               
   195 r.199                   -1001         -1001               
   196 r.200                    2000      -996.206               
   197 r.201                    1000             2               
   198 r.202                   -1000         -1001               
   199 r.203                 2002.86      -995.348               
   200 r.204                       2             2               
   201 r.205                      -2         -1001               
   202 r.206                -2.15559      -996.198               
   203 r.207                -998.205      -998.205               
   204 r.208                -994.043      -998.912               
   205 r.209                -998.205      -998.205               
   206 r.210                -994.043      -998.912               
   207 r.211                    1000             2               
   208 r.212                   -1000         -1001               
   209 r.213                 2001.12        1.8034               
   210 r.214                       2             2               
   211 r.215                      -2         -1001               
   212 r.216                 3.32546       1.23156               
   213 r.217                    1000             2               
   214 r.218                   -1000         -1001               
   215 r.219                 2001.12        1.4191               
   216 r.220                       2             2               
   217 r.221                      -2         -1001               
   218 r.222                 1.99864       0.91075               
   219 r.223                    1000             2               
   220 r.224                   -1000         -1001               
   221 r.225                 994.723        1.7947               
   222 r.226                       2             2               
   223 r.227                      -2         -1001               
   224 r.228                 1.08789       1.08789               
   225 r.229                    1001             2               
   226 r.230                   -1001         -1001               
   227 r.231                 1999.89      -996.838               
   228 r.232                    1001             2               
   229 r.233                   -1001         -1001               
   230 r.234                 2002.09      -997.199               
   231 r.235                    1001             2               
   232 r.236                   -1001         -1001               
   233 r.237                 1996.73      -996.548               
   234 r.238                    1001             2               
   235 r.239                   -1001         -1001               
   236 r.240                 2001.09      -996.206               
   237 r.241                    1000             2               
   238 r.242                   -1000         -1001               
   239 r.243                  997.58      -995.348               
   240 r.244                       2             2               
   241 r.245                      -2         -1001               
   242 r.246                 -1.0677      -996.198               
   243 r.247                 7.07176      -998.113               
   244 r.248                 -995.13      -998.932               
   245 r.249                 7.07176      -998.113               
   246 r.250                 -995.13      -998.932               
   247 r.251                       2             2               
   248 r.252                      -2         -1001               
   249 r.253                 1.23156        1.1233               
   250 r.254                    1000             2               
   251 r.255                   -1000         -1001               
   252 r.256                 2001.23        1.4316               
   253 r.257                    1001             2               
   254 r.258                   -1001         -1001               
   255 r.259                 2001.23        1.4191               
   256 r.260                    1001             2               
   257 r.261                   -1001         -1001               
   258 r.262                  1999.9       0.91075               
   259 r.263                    1001             2               
   260 r.264                   -1001         -1001               
   261 r.265                 994.831        1.7947               
   262 r.266                    1001             2               
   263 r.267                   -1001         -1001               
   264 r.268                 1998.99       1.08789               
   265 r.269                    1001             2               
   266 r.270                   -1001         -1001               
   267 r.271                 2000.11        1.8867               
   268 r.272                    1001             2               
   269 r.273                   -1001         -1001               
   270 r.274                 1997.91        1.0677               
   271 r.275                       2             2               
   272 r.276                      -2         -1001               
   273 r.277                 -3.1616      -996.548               
   274 r.278                    1000             2               
   275 r.279                   -1000         -1001               
   276 r.280                 1998.99      -996.206               
   277 r.281                  2.3116      -996.838               
   278 r.282                 1002.31      -997.199               
   279 r.283                -996.838      -996.838               
   280 r.284                  3.1616      -997.199               
   281 r.285                       2             2               
   282 r.286                      -2         -1001               
   283 r.287                 4.39316        1.1233               
   284 r.288                    1000             2               
   285 r.289                   -1000         -1001               
   286 r.290                 2002.24        1.4316               
   287 r.291                    1001             2               
   288 r.292                   -1001         -1001               
   289 r.293                 2004.39        1.8034               
   290 r.294                    1001             2               
   291 r.295                   -1001         -1001               
   292 r.296                 2002.24       1.23156               
   293 r.297                    1001             2               
   294 r.298                   -1001         -1001               
   295 r.299                 997.993        1.7947               
   296 r.300                    1001             2               
   297 r.301                   -1001         -1001               
   298 r.302                    2000       1.08789               
   299 r.303                    1001             2               
   300 r.304                   -1001         -1001               
   301 r.305                 2003.27        1.8867               
   302 r.306                    1001             2               
   303 r.307                   -1001         -1001               
   304 r.308                 1998.91        1.0677               
   305 r.309                       2             2               
   306 r.310                      -2         -1001               
   307 r.311                  3.1616        3.1616               
   308 r.312                    1000             2               
   309 r.313                   -1000         -1001               
   310 r.314                 2001.01        2.8014               
   311 r.315                    1001             2               
   312 r.316                   -1001         -1001               
   313 r.317                 1000.85      -995.348               
   314 r.318                    1001             2               
   315 r.319                   -1001         -1001               
   316 r.320                 1997.84      -996.198               
   317 r.321                -996.198      -996.548               
   318 r.322                 5.95749      -996.206               
   319 r.323                -996.198      -996.548               
   320 r.324                 5.95749      -996.206               
   321 r.325                    1001             2               
   322 r.326                   -1001         -1001               
   323 r.327                 3003.54        1.1233               
   324 r.328                    1001             2               
   325 r.329                   -1001         -1001               
   326 r.330                 2004.39        1.4316               
   327 r.331                    1000             2               
   328 r.332                   -1000         -1001               
   329 r.333                 3003.54        1.4191               
   330 r.334                       2             2               
   331 r.335                      -2         -1001               
   332 r.336                 3.06634       0.91075               
   333 r.337                    1000             2               
   334 r.338                   -1000         -1001               
   335 r.339                 1997.14        1.7947               
   336 r.340                       2             2               
   337 r.341                      -2         -1001               
   338 r.342                 2.15559       1.08789               
   339 r.343                    1000             2               
   340 r.344                   -1000         -1001               
   341 r.345                 3002.42        1.8867               
   342 r.346                       2             2               
   343 r.347                      -2         -1001               
   344 r.348                  1.0677        1.0677               
   345 r.349                    1001             2               
   346 r.350                   -1001         -1001               
   347 r.351                 2999.15        3.4525               
   348 r.352                    1001             2               
   349 r.353                   -1001         -1001               
   350 r.354                 2002.16        3.7945               
   351 r.355                -995.348      -995.348               
   352 r.356                -996.198      -996.198               
   353 r.357                -995.348      -995.348               
   354 r.358                -996.198      -996.198               

   No. Column name       Activity     Lower bound   Upper bound
------ ------------    ------------- ------------- -------------
     1 tt                    8.42706             0               
     2 s_1_9        *              1             0             1 
     3 s_1_1        *              1             0             1 
     4 t_1_1                       0             0               
     5 s_2_1        *              0             0             1 
     6 t_2_1                       0             0               
     7 s_1_2        *              0             0             1 
     8 t_1_2                       0             0               
     9 s_2_2        *              1             0             1 
    10 t_2_2                       0             0               
    11 s_1_3        *              0             0             1 
    12 t_1_3                       0             0               
    13 s_2_3        *              1             0             1 
    14 t_2_3                 1.32682             0               
    15 s_1_4        *              0             0             1 
    16 t_1_4                  1006.4             0               
    17 s_2_4        *              1             0             1 
    18 t_2_4                 2.23757             0               
    19 s_1_5        *              0             0             1 
    20 t_1_5                  1.1233             0               
    21 s_2_5        *              1             0             1 
    22 t_2_5                 3.32546             0               
    23 s_1_6        *              1             0             1 
    24 t_1_6                 1.23156             0               
    25 s_2_6        *              0             0             1 
    26 t_2_6                 1.23156             0               
    27 s_1_7        *              1             0             1 
    28 t_1_7                 4.39316             0               
    29 s_2_7        *              0             0             1 
    30 t_2_7                 2.23757             0               
    31 s_1_8        *              0             0             1 
    32 t_1_8                 1003.54             0               
    33 s_2_8        *              1             0             1 
    34 t_2_8                 4.39316             0               
    35 t_1_9                 8.19506             0               
    36 s_2_9        *              0             0             1 
    37 t_2_9                 8.19506             0               
    38 r_1_1_2      *              1             0             1 
    39 u_1_1_2      *              0             0             1 
    40 r_2_1_2      *              1             0             1 
    41 u_2_1_2      *              0             0             1 
    42 r_1_1_3      *              1             0             1 
    43 u_1_1_3      *              0             0             1 
    44 r_2_1_3      *              1             0             1 
    45 u_2_1_3      *              0             0             1 
    46 r_1_1_4      *              1             0             1 
    47 u_1_1_4      *              0             0             1 
    48 r_2_1_4      *              1             0             1 
    49 u_2_1_4      *              0             0             1 
    50 r_1_1_6      *              0             0             1 
    51 u_1_1_6      *              0             0             1 
    52 r_2_1_6      *              1             0             1 
    53 u_2_1_6      *              0             0             1 
    54 r_1_1_7      *              0             0             1 
    55 u_1_1_7      *              0             0             1 
    56 r_2_1_7      *              1             0             1 
    57 u_2_1_7      *              0             0             1 
    58 r_1_1_8      *              1             0             1 
    59 u_1_1_8      *              0             0             1 
    60 r_2_1_8      *              1             0             1 
    61 u_2_1_8      *              0             0             1 
    62 r_1_2_3      *              1             0             1 
    63 u_1_2_3      *              0             0             1 
    64 r_2_2_3      *              0             0             1 
    65 u_2_2_3      *              0             0             1 
    66 r_1_2_4      *              1             0             1 
    67 u_1_2_4      *              0             0             1 
    68 r_2_2_4      *              0             0             1 
    69 u_2_2_4      *              0             0             1 
    70 r_1_2_5      *              1             0             1 
    71 u_1_2_5      *              0             0             1 
    72 r_2_2_5      *              0             0             1 
    73 u_2_2_5      *              0             0             1 
    74 r_1_2_7      *              1             0             1 
    75 u_1_2_7      *              0             0             1 
    76 r_2_2_7      *              1             0             1 
    77 u_2_2_7      *              0             0             1 
    78 r_1_3_4      *              1             0             1 
    79 u_1_3_4      *              0             0             1 
    80 r_2_3_4      *              0             0             1 
    81 u_2_3_4      *              0             0             1 
    82 r_1_3_5      *              1             0             1 
    83 u_1_3_5      *              0             0             1 
    84 r_2_3_5      *              0             0             1 
    85 u_2_3_5      *              0             0             1 
    86 r_1_3_6      *              1             0             1 
    87 u_1_3_6      *              0             0             1 
    88 r_2_3_6      *              1             0             1 
    89 u_2_3_6      *              0             0             1 
    90 r_1_3_8      *              1             0             1 
    91 u_1_3_8      *              0             0             1 
    92 r_2_3_8      *              0             0             1 
    93 u_2_3_8      *              0             0             1 
    94 r_1_4_5      *              1             0             1 
    95 u_1_4_5      *              0             0             1 
    96 r_2_4_5      *              0             0             1 
    97 u_2_4_5      *              0             0             1 
    98 r_1_4_6      *              1             0             1 
    99 u_1_4_6      *              0             0             1 
   100 r_2_4_6      *              1             0             1 
   101 u_2_4_6      *              0             0             1 
   102 r_1_4_7      *              1             0             1 
   103 u_1_4_7      *              0             0             1 
   104 r_2_4_7      *              1             0             1 
   105 u_2_4_7      *              0             0             1 
   106 r_1_4_8      *              1             0             1 
   107 u_1_4_8      *              0             0             1 
   108 r_2_4_8      *              0             0             1 
   109 u_2_4_8      *              0             0             1 
   110 r_1_5_6      *              1             0             1 
   111 u_1_5_6      *              0             0             1 
   112 r_2_5_6      *              1             0             1 
   113 u_2_5_6      *              0             0             1 
   114 r_1_5_7      *              1             0             1 
   115 u_1_5_7      *              0             0             1 
   116 r_2_5_7      *              1             0             1 
   117 u_2_5_7      *              0             0             1 
   118 r_1_5_8      *              1             0             1 
   119 u_1_5_8      *              0             0             1 
   120 r_2_5_8      *              0             0             1 
   121 u_2_5_8      *              0             0             1 
   122 r_1_6_7      *              0             0             1 
   123 u_1_6_7      *              0             0             1 
   124 r_2_6_7      *              1             0             1 
   125 u_2_6_7      *              0             0             1 
   126 r_1_7_8      *              1             0             1 
   127 u_1_7_8      *              0             0             1 
   128 r_2_7_8      *              1             0             1 
   129 u_2_7_8      *              0             0             1 

Integer feasibility conditions:

KKT.PE: max.abs.err = 4.55e-13 on row 193
        max.rel.err = 7.57e-17 on row 335
        High quality

KKT.PB: max.abs.err = 2.22e-16 on row 178
        max.rel.err = 1.16e-16 on row 178
        High quality

End of output
